Route #1: 8 17
Route #2: 23 61 100
Route #3: 79 11 85 30
Route #4: 63 77 3
Route #5: 81 51 83
Route #6: 21 56 94 80
Route #7: 1 70 54
Route #8: 31 46 35
Route #9: 44 67 88 40
Route #10: 18 10 39
Route #11: 93 75
Route #12: 4 13 74
Route #13: 14 49 6 37 87
Route #14: 57 72 36 29 43 45 2 7
Route #15: 27 97 19
Route #16: 25 65 78 42 28
Route #17: 69 16 55 76
Route #18: 68 90 84 66
Route #19: 92 9 86
Route #20: 38 47 26 48 96 64 34
Route #21: 59 60 82
Route #22: 71 62 99 98 89
Route #23: 20 41 22 15
Route #24: 32 33 53 73 95 24
Route #25: 52 91 50
Route #26: 5 12 58
Cost 27591.0000
Time 16.0009